p cnf 122 397
c t mc
3 1 0
3 2 0
-1 -2 -3 0
-6 7 0
6 7 0
8 5 0
8 7 0
-5 -7 -8 0
-4 -8 -9 0
4 8 -9 0
-4 8 9 0
4 -8 9 0
10 -3 0
10 9 0
3 -9 -10 0
12 11 0
12 -5 0
-11 5 -12 0
14 -13 0
14 5 0
13 -5 -14 0
-14 15 -16 0
14 -15 -16 0
-14 -15 16 0
14 15 16 0
17 5 0
17 1 0
-5 -1 -17 0
18 -16 0
18 -17 0
16 17 -18 0
19 -12 0
19 18 0
12 -18 -19 0
21 20 0
21 -20 0
4 22 -23 0
-4 -22 -23 0
4 -22 23 0
-4 22 23 0
-24 4 0
-24 16 0
-4 -16 24 0
-25 23 0
-25 24 0
-23 -24 25 0
26 2 0
26 -22 0
-2 22 -26 0
27 11 0
27 26 0
-11 -26 -27 0
-29 3 0
-29 -28 0
-3 28 29 0
-30 8 0
-30 29 0
-8 -29 30 0
27 -30 -31 0
-27 30 -31 0
27 30 31 0
-27 -30 31 0
-32 25 0
-32 31 0
-25 -31 32 0
-34 -9 0
-34 -33 0
9 33 34 0
-35 -34 0
-35 -8 0
34 8 35 0
-35 3 -36 0
35 -3 -36 0
-35 -3 36 0
35 3 36 0
-32 -36 -37 0
32 36 -37 0
-32 36 37 0
32 -36 37 0
38 -4 0
38 -6 0
4 6 -38 0
-40 -38 0
-40 -39 0
38 39 40 0
-42 5 0
-42 41 0
-5 -41 42 0
24 26 -43 0
-24 -26 -43 0
24 -26 43 0
-24 26 43 0
-44 -43 0
-44 -7 0
43 7 44 0
-45 -42 0
-45 44 0
42 -44 45 0
-46 -40 0
-46 45 0
40 -45 46 0
-47 -1 0
-47 -11 0
1 11 47 0
49 -47 0
49 -48 0
47 48 -49 0
50 -39 0
50 -49 0
39 49 -50 0
51 23 0
51 -50 0
-23 50 -51 0
53 51 0
53 -52 0
-51 52 -53 0
-54 14 0
-54 -16 0
-14 16 54 0
-55 -50 0
-55 -54 0
50 54 55 0
-56 -53 0
-56 -55 0
53 55 56 0
57 -46 0
57 -56 0
46 56 -57 0
-23 -6 -58 0
23 6 -58 0
-23 6 58 0
23 -6 58 0
-59 -30 0
-59 -29 0
30 29 59 0
60 58 0
60 -59 0
-58 59 -60 0
60 -54 -61 0
-60 54 -61 0
60 54 61 0
-60 -54 61 0
57 -61 -62 0
-57 61 -62 0
57 61 62 0
-57 -61 62 0
37 62 -63 0
-37 -62 -63 0
37 -62 63 0
-37 62 63 0
-64 -21 0
-64 -63 0
21 63 64 0
65 -50 0
65 -7 0
50 7 -65 0
66 38 0
66 4 0
-38 -4 -66 0
67 -66 0
67 7 0
66 -7 -67 0
68 65 0
68 67 0
-65 -67 -68 0
69 64 0
69 68 0
-64 -68 -69 0
-19 69 -70 0
19 -69 -70 0
-19 -69 70 0
19 69 70 0
-71 -10 0
-71 70 0
10 -70 71 0
72 -52 0
72 -28 0
52 28 -72 0
73 72 0
73 -59 0
-72 59 -73 0
-75 -15 0
-75 -74 0
15 74 75 0
75 3 -76 0
-75 -3 -76 0
75 -3 76 0
-75 3 76 0
77 -4 0
77 -33 0
4 33 -77 0
78 28 0
78 -16 0
-28 16 -78 0
-79 78 0
-79 59 0
-78 -59 79 0
-77 79 -80 0
77 -79 -80 0
-77 -79 80 0
77 79 80 0
-8 -34 -81 0
8 34 -81 0
-8 34 81 0
8 -34 81 0
20 81 -82 0
-20 -81 -82 0
20 -81 82 0
-20 81 82 0
-83 80 0
-83 -82 0
-80 82 83 0
84 76 0
84 83 0
-76 -83 -84 0
85 5 0
85 11 0
-5 -11 -85 0
-14 5 -86 0
14 -5 -86 0
-14 -5 86 0
14 5 86 0
87 13 0
87 86 0
-13 -86 -87 0
-88 85 0
-88 -87 0
-85 87 88 0
88 74 -89 0
-88 -74 -89 0
88 -74 89 0
-88 74 89 0
-90 -84 0
-90 89 0
84 -89 90 0
-28 91 -92 0
28 -91 -92 0
-28 -91 92 0
28 91 92 0
92 26 -93 0
-92 -26 -93 0
92 -26 93 0
-92 26 93 0
94 -90 0
94 93 0
90 -93 -94 0
-95 -73 0
-95 -94 0
73 94 95 0
-96 42 0
-96 86 0
-42 -86 96 0
97 42 0
97 -25 0
-42 25 -97 0
97 -86 -98 0
-97 86 -98 0
97 86 98 0
-97 -86 98 0
-99 96 0
-99 98 0
-96 -98 99 0
-100 -33 0
-100 24 0
33 -24 100 0
-100 -22 -101 0
100 22 -101 0
-100 22 101 0
100 -22 101 0
-102 -99 0
-102 101 0
99 -101 102 0
103 7 0
103 58 0
-7 -58 -103 0
-104 58 0
-104 -33 0
-58 33 104 0
105 104 0
105 -26 0
-104 26 -105 0
103 -105 -106 0
-103 105 -106 0
103 105 106 0
-103 -105 106 0
-107 102 0
-107 106 0
-102 -106 107 0
-109 108 0
-109 -52 0
-108 52 109 0
-110 -107 0
-110 -109 0
107 109 110 0
95 110 -111 0
-95 -110 -111 0
95 -110 111 0
-95 110 111 0
112 43 0
112 -97 0
-43 97 -112 0
43 8 -113 0
-43 -8 -113 0
43 -8 113 0
-43 8 113 0
-114 -112 0
-114 -113 0
112 113 114 0
-116 115 0
-116 -22 0
-115 22 116 0
-117 -116 0
-117 -81 0
116 81 117 0
118 48 0
118 2 0
-48 -2 -118 0
119 -117 0
119 -118 0
117 118 -119 0
114 119 -120 0
-114 -119 -120 0
114 -119 120 0
-114 119 120 0
-121 -111 0
-121 120 0
111 -120 121 0
122 71 0
122 -121 0
-71 121 -122 0
63 9 -59 0
101 -31 -34 -18 -71 0
-60 -36 -24 -101 -114 0
-57 -63 -23 -59 -96 24 0
-24 -78 29 8 -98 -39 -105 0
-112 -68 82 32 0
85 -86 -60 84 -68 -42 13 121 0
-117 116 32 100 0
-111 28 -56 62 0
-100 -33 46 -64 39 0
-89 -90 1 95 103 36 23 54 0
-98 47 -11 -119 45 67 0
-33 120 0
-122 -45 97 0
5 -121 -85 -44 -107 -38 -23 116 -2 -26 0
108 -1 118 -109 72 -67 19 -46 -21 0
66 121 114 111 -112 -3 0
22 -84 -78 -103 6 19 -18 -97 79 106 0
101 102 -77 82 0
-33 -85 43 -110 102 -11 39 28 31 -68 0
78 28 -94 -40 56 -48 27 0
-67 49 -101 -88 0
10 6 41 -24 42 5 -50 -114 92 0
62 85 23 -5 0
34 110 -62 112 0
40 -47 -100 -64 117 120 -70 49 76 -72 0
-49 92 -82 6 0
-16 -67 -90 -122 0
-95 -27 -17 -24 0
3 -104 59 0
-114 83 91 27 -4 93 67 10 33 -98 0
-99 -79 100 -65 96 -89 -72 30 0
-11 -92 50 77 -34 8 106 118 0
-51 37 8 114 -10 -55 -14 0
93 -1 20 26 -44 -51 0
53 20 -90 -27 -56 85 80 0
67 94 -42 50 23 89 -9 0
-60 68 -70 -117 90 23 0
81 99 -56 48 0
-1 14 34 0
2 9 -94 114 43 68 -122 -44 0
71 -85 34 0
108 -11 -59 -52 -2 -26 -67 35 21 0
17 25 -80 -55 56 103 0
-69 25 14 93 -49 0
36 117 85 -90 -40 64 -63 118 0
93 -120 114 110 -60 -38 88 98 100 19 0
-59 13 57 40 -38 0
6 111 -79 -98 121 0
108 -92 -55 26 -41 -58 80 -113 10 0
73 -38 36 -119 -104 -25 -100 -22 -10 -76 0
121 -11 -23 -110 -9 114 43 85 42 54 0
-35 8 93 -3 -57 56 0
-10 105 -102 -20 -92 -91 15 0
-46 86 120 0
29 -18 19 114 -45 35 -56 -77 0
-3 -63 -31 40 -56 0
-6 44 76 33 -70 -60 64 42 0
120 28 76 52 46 -121 -109 -67 40 0
23 2 -9 92 -18 0
66 103 -45 -52 56 25 -89 -16 0
-87 -25 -54 35 0
106 47 9 54 -43 0
109 111 13 -78 -77 99 0
55 -41 -45 -1 24 0
119 31 -3 0
122 0
